letting n =  10
letting blocks =  [[1, 4], [1, 6], [1, 8], [2, 3], [2, 6], [2, 7], [3, 2], [3, 5], [3, 6], [3, 7], [3, 9], [3, 10], [4, 2], [4, 5], [4, 9], [5, 3], [5, 4], [5, 10], [6, 1], [6, 2], [6, 10], [7, 1], [7, 7], [7, 9], [8, 9], [10, 1], [10, 4], [10, 5], [10, 7], [10, 9]]
